solution status: optimal solution found
objective value:                     186861.907275605
d11(0,0)                                            1 	(obj:0)
d11(1,1)                                            1 	(obj:0)
d11(2,3)                                            1 	(obj:0)
d11(2,4)                                            1 	(obj:0)
d11(2,5)                                            1 	(obj:0)
d11(2,6)                                            1 	(obj:0)
d11(3,7)                                            1 	(obj:0)
d11(3,9)                                            1 	(obj:0)
d11(3,11)                                           1 	(obj:0)
d11(3,12)                                           1 	(obj:0)
d11(3,13)                                           1 	(obj:0)
d11(3,14)                                           1 	(obj:0)
d11(4,15)                                           1 	(obj:0)
d11(4,17)                                           1 	(obj:0)
d11(4,19)                                           1 	(obj:0)
d11(4,21)                                           1 	(obj:0)
d11(4,23)                                           1 	(obj:0)
d11(4,25)                                           1 	(obj:0)
d11(4,29)                                           1 	(obj:0)
d12(4,16)                                           1 	(obj:0)
d12(4,18)                                           1 	(obj:0)
d12(4,20)                                           1 	(obj:0)
d12(4,22)                                           1 	(obj:0)
d12(4,24)                                           1 	(obj:0)
d12(4,26)                                           1 	(obj:0)
d12(4,28)                                           1 	(obj:0)
d12(4,30)                                           1 	(obj:0)
d21(3,7)                                            1 	(obj:0)
d21(3,8)                                            1 	(obj:0)
d21(3,9)                                            1 	(obj:0)
d21(3,11)                                           1 	(obj:0)
d21(4,15)                                           1 	(obj:0)
d21(4,16)                                           1 	(obj:0)
d21(4,17)                                           1 	(obj:0)
d21(4,18)                                           1 	(obj:0)
d21(4,19)                                           1 	(obj:0)
d21(4,20)                                           1 	(obj:0)
d21(4,23)                                           1 	(obj:0)
d21(4,24)                                           1 	(obj:0)
y2(4,16)                             1385.48851144891 	(obj:0)
y2(4,18)                             1385.48851144895 	(obj:0)
y2(4,20)                             1385.48851144895 	(obj:0)
y2(4,22)                             1385.48851144891 	(obj:0)
y2(4,24)                             1385.48851144891 	(obj:0)
y2(4,26)                             1385.48851144895 	(obj:0)
y2(4,28)                             1385.48851144895 	(obj:0)
y2(4,30)                             1385.48851144895 	(obj:0)
STE(1,1)                             11382.7501011112 	(obj:0)
STE(0,0)                                        14175 	(obj:0)
STE(1,2)                                        13041 	(obj:0)
STE(2,3)                             4862.24995110123 	(obj:0)
STE(2,4)                             6520.49984999004 	(obj:0)
STE(2,5)                             6520.49984999007 	(obj:0)
STE(2,6)                             8178.74974887889 	(obj:0)
STE(3,7)                             2070.00005221241 	(obj:0)
STE(3,8)                             3728.24995110123 	(obj:0)
STE(3,9)                             3728.24995110123 	(obj:0)
STE(3,10)                            5386.49984999004 	(obj:0)
STE(3,11)                            3728.24995110126 	(obj:0)
STE(3,12)                            5386.49984999007 	(obj:0)
STE(3,13)                            5386.49984999007 	(obj:0)
STE(3,14)                            7044.74974887889 	(obj:0)
STE(4,15)                             936.00005221247 	(obj:0)
STE(4,16)                            2252.21413808887 	(obj:0)
STE(4,17)                            2594.24995110123 	(obj:0)
STE(4,18)                            3910.46403697773 	(obj:0)
STE(4,19)                            2594.24995110123 	(obj:0)
STE(4,20)                            3910.46403697773 	(obj:0)
STE(4,21)                            4252.49984999011 	(obj:0)
STE(4,22)                            5568.71393586651 	(obj:0)
STE(4,23)                            2594.24995110126 	(obj:0)
STE(4,24)                            3910.46403697772 	(obj:0)
STE(4,25)                            4252.49984999013 	(obj:0)
STE(4,26)                            5568.71393586658 	(obj:0)
STE(4,27)                                  4252.49985 	(obj:0)
STE(4,28)                            5568.71393586658 	(obj:0)
STE(4,29)                            5910.74974887889 	(obj:0)
STE(4,30)                             7226.9638347554 	(obj:0)
y1(3,11)                             1492.42490899994 	(obj:0)
y1(3,13)                             1492.42490899994 	(obj:0)
y1(4,27)                         -8.93487595021725e-009 	(obj:0)
AVE(1)                               3265.91696791192 	(obj:0)
AVE(2)                               3332.74178563731 	(obj:0)
WB(3)                                3444.11697932125 	(obj:0)
AVE(3)                               3444.11697932125 	(obj:0)
WB(4)                                3399.56511093647 	(obj:0)
AVE(4)                               3399.56511093778 	(obj:0)
WG(1)                                3265.91696791192 	(obj:10)
WG(2)                                3332.74178563731 	(obj:10)
WG(4)                            1.30670259193498e-009 	(obj:10)
BG(1)                                930.375531067672 	(obj:10)
BG(2)                                4287.45400518817 	(obj:10)
BG(3)                                4196.29249897957 	(obj:10)
BG(4)                                 2673.4099387742 	(obj:10)
y1(1,1)                              1492.42490899996 	(obj:0)
y1(2,3)                              4847.85013500894 	(obj:0)
y1(2,4)                                3355.425226009 	(obj:0)
y1(2,5)                              4847.85013500894 	(obj:0)
y1(2,6)                                3355.425226009 	(obj:0)
y1(3,7)                              1492.42490899994 	(obj:0)
y1(3,9)                              1492.42490899994 	(obj:0)
